NAME : tsp_331_sol.txt
COMMENT : OR-Tools Guided Local Search
TYPE : TOUR
DIMENSION : 50
COST : 6415
STATUS : ROUTING_SUCCESS
GAP : 0.00% (Reference Solution)
TOUR_SECTION
1
11
32
9
47
2
39
31
50
29
27
37
18
28
38
4
16
25
13
33
8
14
15
20
30
46
24
23
40
17
48
12
21
3
41
43
45
49
35
6
26
34
22
36
42
5
19
10
7
44
-1
